data;
set K:= K1 K2 K3 K4 K5 K6 K7 ;

set F:= F1 F2 ;

set Q:= Q1 Q2 ;

param T:= 45;
param V: 
	K1  K2  K3  K4  K5  K6  K7  :=
Q1	1   1   1   1   0   0   0   
Q2	0   0   0   0   1   1   1   
; # if resorce k is of type q

param TF:= 
K1 6
K2 6
K3 6
K4 6
K5 12
K6 12
K7 12
; # number of continuous time slots resource can fly

param TR:= 
K1 2
K2 2
K3 2
K4 2
K5 4
K6 4
K7 4
; #  number of continuous time slots resource k needs to rest between flights

param P:= 
K1 36
K2 36
K3 36
K4 36
K5 36
K6 36
K7 36
; #  number of continuous time slots a pilot can be present including rest times for resource k 

param N:= 
K1 4
K2 4
K3 4
K4 4
K5 1
K6 2
K7 2
; # max number of flights resource k can fly in the total time period

param A: 
	K1  K2  K3  K4  K5  K6  K7  :=
1	1   1   1   1   1   1   1   
2	1   1   1   1   1   1   1   
3	1   1   1   1   1   1   1   
4	1   1   1   1   1   1   1   
5	1   1   1   1   1   1   1   
6	1   1   1   1   1   1   1   
7	1   1   1   1   1   1   1   
8	1   1   1   1   1   1   1   
9	1   1   1   1   1   1   1   
10	1   1   1   1   1   1   1   
11	1   1   1   1   1   1   1   
12	1   1   1   1   1   1   1   
13	1   1   1   1   1   1   1   
14	1   1   1   1   1   1   1   
15	1   1   1   1   1   1   1   
16	1   1   1   1   1   1   1   
17	1   1   1   1   1   1   1   
18	1   1   1   1   1   1   1   
19	1   1   1   1   1   1   1   
20	1   1   1   1   1   1   1   
21	1   1   1   1   1   1   1   
22	1   1   1   1   1   1   1   
23	1   1   1   1   1   1   1   
24	1   1   1   1   1   1   1   
25	1   1   1   1   1   1   1   
26	1   1   1   1   1   1   1   
27	1   1   1   1   1   1   1   
28	1   1   1   1   1   1   1   
29	1   1   1   1   1   1   1   
30	1   1   1   1   1   1   1   
31	1   1   1   1   1   1   1   
32	1   1   1   1   1   1   1   
33	1   1   1   1   1   1   1   
34	1   1   1   1   1   1   1   
35	1   1   1   1   1   1   1   
36	1   1   1   1   1   1   1   
37	1   1   1   1   1   1   1   
38	1   1   1   1   1   1   1   
39	1   1   1   1   0   1   1   
40	1   1   1   1   0   1   1   
41	1   1   1   1   0   1   1   
42	1   1   1   1   0   1   1   
43	1   1   1   1   0   1   1   
44	1   1   1   1   0   1   1   
45	1   1   1   1   0   1   1   
; # availability of resorce k in time slot t

param B: 
	F1  F2  :=
Q1	0   0   
Q2	0   0   
; # if front f requires resources of type q

param U: 
	F1  F2  :=
K1	0   0   
K2	0   0   
K3	0   0   
K4	0   0   
K5	2   2   
K6	1   1   
K7	1   1   
; # transit time of resource

param C:= 
K1 900
K2 900
K3 1500
K4 4500
K5 5500
K6 5500
K7 5500
; #  water capacity of resource k

param S:= 
F1 7
F2 8
; # max number of resources that can fly at front f in the same time slot

param D:= 

[*,*,F1 ]:  K1    K2    K3    K4    K5    K6    K7    :=
1           1.77  1.77  1.77  1.41  1.06  1.06  1.06  
2           1.77  1.77  1.77  1.41  1.06  1.06  1.06  
3           1.77  1.77  1.77  1.41  1.06  1.06  1.06  
4           1.77  1.77  1.77  1.41  1.06  1.06  1.06  
5           1.77  1.77  1.77  1.41  1.06  1.06  1.06  
6           1.77  1.77  1.77  1.41  1.06  1.06  1.06  
7           1.77  1.77  1.77  1.41  1.06  1.06  1.06  
8           1.77  1.77  1.77  1.41  1.06  1.06  1.06  
9           1.77  1.77  1.77  1.41  1.06  1.06  1.06  
10          1.77  1.77  1.77  1.41  1.06  1.06  1.06  
11          1.77  1.77  1.77  1.41  1.06  1.06  1.06  
12          1.77  1.77  1.77  1.41  1.06  1.06  1.06  
13          1.77  1.77  1.77  1.41  1.06  1.06  1.06  
14          1.77  1.77  1.77  1.41  1.06  1.06  1.06  
15          1.77  1.77  1.77  1.41  1.06  1.06  1.06  
16          1.77  1.77  1.77  1.41  1.06  1.06  1.06  
17          1.77  1.77  1.77  1.41  1.06  1.06  1.06  
18          1.77  1.77  1.77  1.41  1.06  1.06  1.06  
19          1.77  1.77  1.77  1.41  1.06  1.06  1.06  
20          1.77  1.77  1.77  1.41  1.06  1.06  1.06  
21          1.77  1.77  1.77  1.41  1.06  1.06  1.06  
22          1.77  1.77  1.77  1.41  1.06  1.06  1.06  
23          1.77  1.77  1.77  1.41  1.06  1.06  1.06  
24          1.77  1.77  1.77  1.41  1.06  1.06  1.06  
25          1.68  1.68  1.68  1.34  1.01  1.01  1.01  
26          1.68  1.68  1.68  1.34  1.01  1.01  1.01  
27          1.68  1.68  1.68  1.34  1.01  1.01  1.01  
28          1.68  1.68  1.68  1.34  1.01  1.01  1.01  
29          1.68  1.68  1.68  1.34  1.01  1.01  1.01  
30          1.68  1.68  1.68  1.34  1.01  1.01  1.01  
31          1.68  1.68  1.68  1.34  1.01  1.01  1.01  
32          1.68  1.68  1.68  1.34  1.01  1.01  1.01  
33          1.68  1.68  1.68  1.34  1.01  1.01  1.01  
34          1.77  1.77  1.77  1.41  1.06  1.06  1.06  
35          1.77  1.77  1.77  1.41  1.06  1.06  1.06  
36          1.77  1.77  1.77  1.41  1.06  1.06  1.06  
37          1.77  1.77  1.77  1.41  1.06  1.06  1.06  
38          1.77  1.77  1.77  1.41  1.06  1.06  1.06  
39          1.77  1.77  1.77  1.41  1.06  1.06  1.06  
40          1.77  1.77  1.77  1.41  1.06  1.06  1.06  
41          1.77  1.77  1.77  1.41  1.06  1.06  1.06  
42          1.77  1.77  1.77  1.41  1.06  1.06  1.06  
43          1.77  1.77  1.77  1.41  1.06  1.06  1.06  
44          1.77  1.77  1.77  1.41  1.06  1.06  1.06  
45          1.77  1.77  1.77  1.41  1.06  1.06  1.06  

[*,*,F2 ]:  K1    K2    K3    K4    K5    K6    K7    :=
1           1.34  1.34  1.34  1.06  0.80  0.80  0.80  
2           1.34  1.34  1.34  1.06  0.80  0.80  0.80  
3           1.34  1.34  1.34  1.06  0.80  0.80  0.80  
4           1.34  1.34  1.34  1.06  0.80  0.80  0.80  
5           1.34  1.34  1.34  1.06  0.80  0.80  0.80  
6           1.34  1.34  1.34  1.06  0.80  0.80  0.80  
7           1.34  1.34  1.34  1.06  0.80  0.80  0.80  
8           1.34  1.34  1.34  1.06  0.80  0.80  0.80  
9           1.34  1.34  1.34  1.06  0.80  0.80  0.80  
10          1.34  1.34  1.34  1.06  0.80  0.80  0.80  
11          1.34  1.34  1.34  1.06  0.80  0.80  0.80  
12          1.34  1.34  1.34  1.06  0.80  0.80  0.80  
13          1.34  1.34  1.34  1.06  0.80  0.80  0.80  
14          1.34  1.34  1.34  1.06  0.80  0.80  0.80  
15          1.34  1.34  1.34  1.06  0.80  0.80  0.80  
16          1.34  1.34  1.34  1.06  0.80  0.80  0.80  
17          1.34  1.34  1.34  1.06  0.80  0.80  0.80  
18          1.34  1.34  1.34  1.06  0.80  0.80  0.80  
19          1.34  1.34  1.34  1.06  0.80  0.80  0.80  
20          1.34  1.34  1.34  1.06  0.80  0.80  0.80  
21          1.34  1.34  1.34  1.06  0.80  0.80  0.80  
22          1.34  1.34  1.34  1.06  0.80  0.80  0.80  
23          1.34  1.34  1.34  1.06  0.80  0.80  0.80  
24          1.34  1.34  1.34  1.06  0.80  0.80  0.80  
25          1.27  1.27  1.27  1.01  0.76  0.76  0.76  
26          1.27  1.27  1.27  1.01  0.76  0.76  0.76  
27          1.27  1.27  1.27  1.01  0.76  0.76  0.76  
28          1.27  1.27  1.27  1.01  0.76  0.76  0.76  
29          1.27  1.27  1.27  1.01  0.76  0.76  0.76  
30          1.27  1.27  1.27  1.01  0.76  0.76  0.76  
31          1.27  1.27  1.27  1.01  0.76  0.76  0.76  
32          1.27  1.27  1.27  1.01  0.76  0.76  0.76  
33          1.27  1.27  1.27  1.01  0.76  0.76  0.76  
34          1.34  1.34  1.34  1.06  0.80  0.80  0.80  
35          1.34  1.34  1.34  1.06  0.80  0.80  0.80  
36          1.34  1.34  1.34  1.06  0.80  0.80  0.80  
37          1.34  1.34  1.34  1.06  0.80  0.80  0.80  
38          1.34  1.34  1.34  1.06  0.80  0.80  0.80  
39          1.34  1.34  1.34  1.06  0.80  0.80  0.80  
40          1.34  1.34  1.34  1.06  0.80  0.80  0.80  
41          1.34  1.34  1.34  1.06  0.80  0.80  0.80  
42          1.34  1.34  1.34  1.06  0.80  0.80  0.80  
43          1.34  1.34  1.34  1.06  0.80  0.80  0.80  
44          1.34  1.34  1.34  1.06  0.80  0.80  0.80  
45          1.34  1.34  1.34  1.06  0.80  0.80  0.80  
; # downloads resource k can do at front f in time t if intermediate time slot

param E:= 

[*,*,F1 ]:  K1    K2    K3    K4    K5    K6    K7    :=
1           0.62  0.39  0.64  0.28  0.13  0.14  0.08  
2           0.62  0.39  0.64  0.28  0.13  0.14  0.08  
3           0.62  0.39  0.64  0.28  0.13  0.14  0.08  
4           0.62  0.39  0.64  0.28  0.13  0.14  0.08  
5           0.62  0.39  0.64  0.28  0.13  0.14  0.08  
6           0.62  0.39  0.64  0.28  0.13  0.14  0.08  
7           0.62  0.39  0.64  0.28  0.13  0.14  0.08  
8           0.62  0.39  0.64  0.28  0.13  0.14  0.08  
9           0.62  0.39  0.64  0.28  0.13  0.14  0.08  
10          0.62  0.39  0.64  0.28  0.13  0.14  0.08  
11          0.62  0.39  0.64  0.28  0.13  0.14  0.08  
12          0.62  0.39  0.64  0.28  0.13  0.14  0.08  
13          0.62  0.39  0.64  0.28  0.13  0.14  0.08  
14          0.62  0.39  0.64  0.28  0.13  0.14  0.08  
15          0.62  0.39  0.64  0.28  0.13  0.14  0.08  
16          0.62  0.39  0.64  0.28  0.13  0.14  0.08  
17          0.62  0.39  0.64  0.28  0.13  0.14  0.08  
18          0.62  0.39  0.64  0.28  0.13  0.14  0.08  
19          0.62  0.39  0.64  0.28  0.13  0.14  0.08  
20          0.62  0.39  0.64  0.28  0.13  0.14  0.08  
21          0.62  0.39  0.64  0.28  0.13  0.14  0.08  
22          0.62  0.39  0.64  0.28  0.13  0.14  0.08  
23          0.62  0.39  0.64  0.28  0.13  0.14  0.08  
24          0.62  0.39  0.64  0.28  0.13  0.14  0.08  
25          0.59  0.37  0.61  0.27  0.12  0.13  0.08  
26          0.59  0.37  0.61  0.27  0.12  0.13  0.08  
27          0.59  0.37  0.61  0.27  0.12  0.13  0.08  
28          0.59  0.37  0.61  0.27  0.12  0.13  0.08  
29          0.59  0.37  0.61  0.27  0.12  0.13  0.08  
30          0.59  0.37  0.61  0.27  0.12  0.13  0.08  
31          0.59  0.37  0.61  0.27  0.12  0.13  0.08  
32          0.59  0.37  0.61  0.27  0.12  0.13  0.08  
33          0.59  0.37  0.61  0.27  0.12  0.13  0.08  
34          0.62  0.39  0.64  0.28  0.13  0.14  0.08  
35          0.62  0.39  0.64  0.28  0.13  0.14  0.08  
36          0.62  0.39  0.64  0.28  0.13  0.14  0.08  
37          0.62  0.39  0.64  0.28  0.13  0.14  0.08  
38          0.62  0.39  0.64  0.28  0.13  0.14  0.08  
39          0.62  0.39  0.64  0.28  0.13  0.14  0.08  
40          0.62  0.39  0.64  0.28  0.13  0.14  0.08  
41          0.62  0.39  0.64  0.28  0.13  0.14  0.08  
42          0.62  0.39  0.64  0.28  0.13  0.14  0.08  
43          0.62  0.39  0.64  0.28  0.13  0.14  0.08  
44          0.62  0.39  0.64  0.28  0.13  0.14  0.08  
45          0.62  0.39  0.64  0.28  0.13  0.14  0.08  

[*,*,F2 ]:  K1    K2    K3    K4    K5    K6    K7    :=
1           0.55  0.21  0.49  0.22  0.09  0.12  0.07  
2           0.55  0.21  0.49  0.22  0.09  0.12  0.07  
3           0.55  0.21  0.49  0.22  0.09  0.12  0.07  
4           0.55  0.21  0.49  0.22  0.09  0.12  0.07  
5           0.55  0.21  0.49  0.22  0.09  0.12  0.07  
6           0.55  0.21  0.49  0.22  0.09  0.12  0.07  
7           0.55  0.21  0.49  0.22  0.09  0.12  0.07  
8           0.55  0.21  0.49  0.22  0.09  0.12  0.07  
9           0.55  0.21  0.49  0.22  0.09  0.12  0.07  
10          0.55  0.21  0.49  0.22  0.09  0.12  0.07  
11          0.55  0.21  0.49  0.22  0.09  0.12  0.07  
12          0.55  0.21  0.49  0.22  0.09  0.12  0.07  
13          0.55  0.21  0.49  0.22  0.09  0.12  0.07  
14          0.55  0.21  0.49  0.22  0.09  0.12  0.07  
15          0.55  0.21  0.49  0.22  0.09  0.12  0.07  
16          0.55  0.21  0.49  0.22  0.09  0.12  0.07  
17          0.55  0.21  0.49  0.22  0.09  0.12  0.07  
18          0.55  0.21  0.49  0.22  0.09  0.12  0.07  
19          0.55  0.21  0.49  0.22  0.09  0.12  0.07  
20          0.55  0.21  0.49  0.22  0.09  0.12  0.07  
21          0.55  0.21  0.49  0.22  0.09  0.12  0.07  
22          0.55  0.21  0.49  0.22  0.09  0.12  0.07  
23          0.55  0.21  0.49  0.22  0.09  0.12  0.07  
24          0.55  0.21  0.49  0.22  0.09  0.12  0.07  
25          0.52  0.20  0.47  0.21  0.08  0.11  0.07  
26          0.52  0.20  0.47  0.21  0.08  0.11  0.07  
27          0.52  0.20  0.47  0.21  0.08  0.11  0.07  
28          0.52  0.20  0.47  0.21  0.08  0.11  0.07  
29          0.52  0.20  0.47  0.21  0.08  0.11  0.07  
30          0.52  0.20  0.47  0.21  0.08  0.11  0.07  
31          0.52  0.20  0.47  0.21  0.08  0.11  0.07  
32          0.52  0.20  0.47  0.21  0.08  0.11  0.07  
33          0.52  0.20  0.47  0.21  0.08  0.11  0.07  
34          0.55  0.21  0.49  0.22  0.09  0.12  0.07  
35          0.55  0.21  0.49  0.22  0.09  0.12  0.07  
36          0.55  0.21  0.49  0.22  0.09  0.12  0.07  
37          0.55  0.21  0.49  0.22  0.09  0.12  0.07  
38          0.55  0.21  0.49  0.22  0.09  0.12  0.07  
39          0.55  0.21  0.49  0.22  0.09  0.12  0.07  
40          0.55  0.21  0.49  0.22  0.09  0.12  0.07  
41          0.55  0.21  0.49  0.22  0.09  0.12  0.07  
42          0.55  0.21  0.49  0.22  0.09  0.12  0.07  
43          0.55  0.21  0.49  0.22  0.09  0.12  0.07  
44          0.55  0.21  0.49  0.22  0.09  0.12  0.07  
45          0.55  0.21  0.49  0.22  0.09  0.12  0.07  
; # downloads resource k can do at front f in time t if starting or ending flight

param W: 
	F1        F2        :=
1	226.11    226.11    
2	904.44    904.44    
3	904.44    904.44    
4	904.44    904.44    
5	904.44    904.44    
6	904.44    904.44    
7	904.44    904.44    
8	904.44    904.44    
9	904.44    904.44    
10	904.44    904.44    
11	904.44    904.44    
12	904.44    904.44    
13	904.44    904.44    
14	904.44    904.44    
15	904.44    904.44    
16	904.44    904.44    
17	904.44    904.44    
18	904.44    904.44    
19	401.97    401.97    
20	401.97    401.97    
21	401.97    401.97    
22	401.97    401.97    
23	401.97    401.97    
24	401.97    401.97    
25	401.97    401.97    
26	401.97    401.97    
27	401.97    401.97    
28	401.97    401.97    
29	401.97    401.97    
30	401.97    401.97    
31	401.97    401.97    
32	401.97    401.97    
33	401.97    401.97    
34	401.97    401.97    
35	401.97    401.97    
36	401.97    401.97    
37	401.97    401.97    
38	401.97    401.97    
39	401.97    401.97    
40	401.97    401.97    
41	401.97    401.97    
42	401.97    401.97    
43	401.97    401.97    
44	401.97    401.97    
45	100.49    100.49    
; # water needed at front f in time slot t

param M := 100000000; 

param a1:= 10000000;

param a2:= 100;

param a3:= 0.0001;
